g3 2 1 0	# problem inst_sans_ref
 52 170 1 0 42	# vars, constraints, objectives, ranges, eqns
 42 1	# nonlinear constraints, objectives
 0 0	# network constraints: nonlinear, linear
 10 10 10	# nonlinear vars in constraints, objectives, both
 0 0 0 1	# linear network variables; functions; arith, flags
 0 0 0 0 0	# discrete variables: binary, integer, nonlinear (b,c,o)
 469 45	# nonzeros in Jacobian, gradients
 0 0	# max name lengths: constraints, variables
 0 0 0 0 0	# common exprs: b,c,o,c1,o1
b
0 0 1
0 0 1
0 0 1
0 0 1
0 0 1
0 0 1
0 0 1
0 0 1
0 0 1
0 0 1
0 0 1
0 0 1
0 0 1
0 0 1
0 0 1
0 0 1
0 0 1
0 0 1
0 0 1
0 0 1
0 0 1
0 0 1
0 0 1
0 0 1
0 0 1
0 0 1
0 0 1
0 0 1
0 0 1
0 0 1
0 0 1
0 0 1
0 0 1
0 0 1
0 0 1
0 0 1
0 0 1
0 0 1
0 0 1
0 0 1
0 0 1
0 0 1
0 0 1
0 0 1
0 0 1
0 0 1
0 0 1
0 0 1
0 0 1
0 0 1
0 0 1
0 0 1
r
4 0
4 0
4 0
4 0
4 0
4 0
4 0
4 0
4 0
4 0
4 0
4 0
4 0
4 0
4 0
4 0
4 0
4 0
4 0
4 0
4 0
4 0
4 0
4 0
4 0
4 0
4 0
4 0
4 0
4 0
4 0
4 0
4 0
4 0
4 0
4 0
4 0
4 0
4 0
4 0
4 0
4 0
1 4.29
1 4.04
1 0
1 0
1 0
1 0
1 0
1 0
1 0
1 0
1 0
1 0
1 0
1 0
1 0
1 0
1 0
1 0
1 0
1 0
1 0
1 0
1 0
1 0
1 0
1 0
1 0
1 0
1 0
1 0
1 0
1 0
1 0
1 0
1 0
1 0
1 0
1 0
1 0
1 0
1 0
1 0
1 0
1 0
1 0
1 0
1 0
1 0
1 0
1 0
1 0
1 0
1 0
1 0
1 0
1 0
1 0
1 0
1 0
1 0
1 0
1 0
1 0
1 0
1 0
1 0
1 0
1 0
1 0
1 0
1 0
1 0
1 0
1 0
1 0
1 0
2 -1
2 -1
2 -1
2 -1
2 -1
2 -1
2 -1
2 -1
2 -1
2 -1
2 -1
2 -1
2 -1
2 -1
2 -1
2 -1
2 -1
2 -1
2 -1
2 -1
2 -1
2 -1
2 -1
2 -1
2 -1
2 -1
2 -1
2 -1
2 -1
2 -1
2 -1
2 -1
2 -1
2 -1
2 -1
2 -1
2 -1
2 -1
2 -1
2 -1
2 -1
2 -1
2 0
2 0
2 0
2 0
2 0
2 0
2 0
2 0
2 0
2 0
C0
o16
o2
v0
v0
C1
o16
o2
v0
v5
C2
o16
o2
v0
v6
C3
o16
o2
v0
v7
C4
o16
o2
v0
v8
C5
o16
o2
v0
v9
C6
o16
o2
v1
v1
C7
o16
o2
v1
v2
C8
o16
o2
v1
v3
C9
o16
o2
v1
v5
C10
o16
o2
v1
v6
C11
o16
o2
v1
v7
C12
o16
o2
v1
v8
C13
o16
o2
v1
v9
C14
o16
o2
v2
v2
C15
o16
o2
v2
v5
C16
o16
o2
v2
v6
C17
o16
o2
v2
v7
C18
o16
o2
v2
v8
C19
o16
o2
v2
v9
C20
o16
o2
v3
v3
C21
o16
o2
v3
v4
C22
o16
o2
v3
v5
C23
o16
o2
v3
v6
C24
o16
o2
v3
v7
C25
o16
o2
v3
v8
C26
o16
o2
v3
v9
C27
o16
o2
v4
v4
C28
o16
o2
v4
v5
C29
o16
o2
v4
v6
C30
o16
o2
v4
v7
C31
o16
o2
v4
v8
C32
o16
o2
v4
v9
C33
o16
o2
v5
v5
C34
o16
o2
v5
v6
C35
o16
o2
v5
v9
C36
o16
o2
v6
v6
C37
o16
o2
v6
v7
C38
o16
o2
v7
v7
C39
o16
o2
v7
v8
C40
o16
o2
v8
v8
C41
o16
o2
v9
v9
C42
n0
C43
n0
C44
n0
C45
n0
C46
n0
C47
n0
C48
n0
C49
n0
C50
n0
C51
n0
C52
n0
C53
n0
C54
n0
C55
n0
C56
n0
C57
n0
C58
n0
C59
n0
C60
n0
C61
n0
C62
n0
C63
n0
C64
n0
C65
n0
C66
n0
C67
n0
C68
n0
C69
n0
C70
n0
C71
n0
C72
n0
C73
n0
C74
n0
C75
n0
C76
n0
C77
n0
C78
n0
C79
n0
C80
n0
C81
n0
C82
n0
C83
n0
C84
n0
C85
n0
C86
n0
C87
n0
C88
n0
C89
n0
C90
n0
C91
n0
C92
n0
C93
n0
C94
n0
C95
n0
C96
n0
C97
n0
C98
n0
C99
n0
C100
n0
C101
n0
C102
n0
C103
n0
C104
n0
C105
n0
C106
n0
C107
n0
C108
n0
C109
n0
C110
n0
C111
n0
C112
n0
C113
n0
C114
n0
C115
n0
C116
n0
C117
n0
C118
n0
C119
n0
C120
n0
C121
n0
C122
n0
C123
n0
C124
n0
C125
n0
C126
n0
C127
n0
C128
n0
C129
n0
C130
n0
C131
n0
C132
n0
C133
n0
C134
n0
C135
n0
C136
n0
C137
n0
C138
n0
C139
n0
C140
n0
C141
n0
C142
n0
C143
n0
C144
n0
C145
n0
C146
n0
C147
n0
C148
n0
C149
n0
C150
n0
C151
n0
C152
n0
C153
n0
C154
n0
C155
n0
C156
n0
C157
n0
C158
n0
C159
n0
C160
n0
C161
n0
C162
n0
C163
n0
C164
n0
C165
n0
C166
n0
C167
n0
C168
n0
C169
n0
O0 0
o54
74
o2
o2
n1.008186
v0
v0
o2
o2
n0.473295
v0
v5
o2
o2
n0.185
v0
v6
o2
o2
n-0.345
v0
v7
o2
o2
n0.736589
v0
v8
o2
o2
n-0.853768
v0
v9
o2
o2
n1.114096
v1
v1
o2
o2
n-0.249327
v1
v2
o2
o2
n-0.138741
v1
v3
o2
o2
n0.781447
v1
v5
o2
o2
n0.384257
v1
v6
o2
o2
n-0.425365
v1
v7
o2
o2
n-0.285
v1
v8
o2
o2
n0.543215
v1
v9
o2
o2
n-0.249327
v2
v1
o2
o2
n1.546489
v2
v2
o2
o2
n0.565
v2
v5
o2
o2
n-0.208951
v2
v6
o2
o2
n0.410241
v2
v7
o2
o2
n0.847683
v2
v8
o2
o2
n0.3
v2
v9
o2
o2
n-0.138741
v3
v1
o2
o2
n2.048916
v3
v3
o2
o2
n-0.160629
v3
v4
o2
o2
n0.947429
v3
v5
o2
o2
n-0.397847
v3
v6
o2
o2
n0.522507
v3
v7
o2
o2
n-0.935
v3
v8
o2
o2
n-0.853857
v3
v9
o2
o2
n-0.160629
v4
v3
o2
o2
n1.132179
v4
v4
o2
o2
n-0.421176
v4
v5
o2
o2
n-0.378679
v4
v6
o2
o2
n-0.005
v4
v7
o2
o2
n0.619215
v4
v8
o2
o2
n0.379607
v4
v9
o2
o2
n0.473295
v5
v0
o2
o2
n0.781447
v5
v1
o2
o2
n0.565
v5
v2
o2
o2
n0.947429
v5
v3
o2
o2
n-0.421176
v5
v4
o2
o2
n1.933593
v5
v5
o2
o2
n0.229881
v5
v6
o2
o2
n-0.278291
v5
v9
o2
o2
n0.185
v6
v0
o2
o2
n0.384257
v6
v1
o2
o2
n-0.208951
v6
v2
o2
o2
n-0.397847
v6
v3
o2
o2
n-0.378679
v6
v4
o2
o2
n0.229881
v6
v5
o2
o2
n0.427176
v6
v6
o2
o2
n-0.276893
v6
v7
o2
o2
n-0.345
v7
v0
o2
o2
n-0.425365
v7
v1
o2
o2
n0.410241
v7
v2
o2
o2
n0.522507
v7
v3
o2
o2
n-0.005
v7
v4
o2
o2
n-0.276893
v7
v6
o2
o2
n0.567689
v7
v7
o2
o2
n-0.023053
v7
v8
o2
o2
n0.736589
v8
v0
o2
o2
n-0.285
v8
v1
o2
o2
n0.847683
v8
v2
o2
o2
n-0.935
v8
v3
o2
o2
n0.619215
v8
v4
o2
o2
n-0.023053
v8
v7
o2
o2
n2.040147
v8
v8
o2
o2
n-0.853768
v9
v0
o2
o2
n0.543215
v9
v1
o2
o2
n0.3
v9
v2
o2
o2
n-0.853857
v9
v3
o2
o2
n0.379607
v9
v4
o2
o2
n-0.278291
v9
v5
o2
o2
n1.5099
v9
v9
k51
21
47
71
98
122
149
176
203
227
251
255
261
267
273
279
285
289
293
297
303
309
315
321
327
331
337
343
349
355
361
365
369
375
381
387
393
399
403
409
415
421
427
433
437
441
445
449
453
457
461
465
J0 2
0 0
10 1
J1 3
0 0
5 0
11 1
J2 3
0 0
6 0
12 1
J3 3
0 0
7 0
13 1
J4 3
0 0
8 0
14 1
J5 3
0 0
9 0
15 1
J6 2
1 0
16 1
J7 3
1 0
2 0
17 1
J8 3
1 0
3 0
18 1
J9 3
1 0
5 0
19 1
J10 3
1 0
6 0
20 1
J11 3
1 0
7 0
21 1
J12 3
1 0
8 0
22 1
J13 3
1 0
9 0
23 1
J14 2
2 0
24 1
J15 3
2 0
5 0
25 1
J16 3
2 0
6 0
26 1
J17 3
2 0
7 0
27 1
J18 3
2 0
8 0
28 1
J19 3
2 0
9 0
29 1
J20 2
3 0
30 1
J21 3
3 0
4 0
31 1
J22 3
3 0
5 0
32 1
J23 3
3 0
6 0
33 1
J24 3
3 0
7 0
34 1
J25 3
3 0
8 0
35 1
J26 3
3 0
9 0
36 1
J27 2
4 0
37 1
J28 3
4 0
5 0
38 1
J29 3
4 0
6 0
39 1
J30 3
4 0
7 0
40 1
J31 3
4 0
8 0
41 1
J32 3
4 0
9 0
42 1
J33 2
5 0
43 1
J34 3
5 0
6 0
44 1
J35 3
5 0
9 0
45 1
J36 2
6 0
46 1
J37 3
6 0
7 0
47 1
J38 2
7 0
48 1
J39 3
7 0
8 0
49 1
J40 2
8 0
50 1
J41 2
9 0
51 1
J42 34
0 0.31
2 0.93
3 -0.11
4 0.69
5 0.59
6 0.52
7 -0.62
8 -0.12
9 0.44
11 -1.9
12 -0.58
13 1.4
14 -0.17
15 0.61
19 1.86
20 -0.34
21 -0.79
22 -1.68
23 0.33
25 -0.6
26 -1.48
27 0.16
28 -1.66
29 1.85
32 1.28
33 1.26
34 -0.41
35 1.85
36 -0.15
38 0.27
39 1.8
40 -0.56
41 -1.52
42 0.09
J43 35
0 0.92
1 0.31
2 -0.03
3 0.25
4 0.54
5 0.61
6 0.24
7 -0.89
8 0.77
9 -0.08
11 -0.97
12 -0.47
13 0.01
14 1.2
15 -0.23
19 1.09
20 1.32
21 -1.43
22 -1.65
23 0.37
25 -1.38
26 1.27
27 0.59
28 1.49
29 0.08
32 -0.67
33 1.91
34 0.59
35 -0.16
36 0.03
38 0.42
39 0.3
40 0.73
41 -0.6
42 0.33
J44 2
0 -1
10 1
J45 2
0 -1
11 1
J46 2
0 -1
12 1
J47 2
0 -1
13 1
J48 2
0 -1
14 1
J49 2
0 -1
15 1
J50 2
1 -1
16 1
J51 2
1 -1
17 1
J52 2
1 -1
18 1
J53 2
1 -1
19 1
J54 2
1 -1
20 1
J55 2
1 -1
21 1
J56 2
1 -1
22 1
J57 2
1 -1
23 1
J58 2
2 -1
24 1
J59 2
2 -1
25 1
J60 2
2 -1
26 1
J61 2
2 -1
27 1
J62 2
2 -1
28 1
J63 2
2 -1
29 1
J64 2
3 -1
30 1
J65 2
3 -1
31 1
J66 2
3 -1
32 1
J67 2
3 -1
33 1
J68 2
3 -1
34 1
J69 2
3 -1
35 1
J70 2
3 -1
36 1
J71 2
4 -1
37 1
J72 2
4 -1
38 1
J73 2
4 -1
39 1
J74 2
4 -1
40 1
J75 2
4 -1
41 1
J76 2
4 -1
42 1
J77 2
5 -1
43 1
J78 2
5 -1
44 1
J79 2
5 -1
45 1
J80 2
6 -1
46 1
J81 2
6 -1
47 1
J82 2
7 -1
48 1
J83 2
7 -1
49 1
J84 2
8 -1
50 1
J85 2
9 -1
51 1
J86 2
5 -1
11 1
J87 2
6 -1
12 1
J88 2
7 -1
13 1
J89 2
8 -1
14 1
J90 2
9 -1
15 1
J91 2
2 -1
17 1
J92 2
3 -1
18 1
J93 2
5 -1
19 1
J94 2
6 -1
20 1
J95 2
7 -1
21 1
J96 2
8 -1
22 1
J97 2
9 -1
23 1
J98 2
5 -1
25 1
J99 2
6 -1
26 1
J100 2
7 -1
27 1
J101 2
8 -1
28 1
J102 2
9 -1
29 1
J103 2
4 -1
31 1
J104 2
5 -1
32 1
J105 2
6 -1
33 1
J106 2
7 -1
34 1
J107 2
8 -1
35 1
J108 2
9 -1
36 1
J109 2
5 -1
38 1
J110 2
6 -1
39 1
J111 2
7 -1
40 1
J112 2
8 -1
41 1
J113 2
9 -1
42 1
J114 2
6 -1
44 1
J115 2
9 -1
45 1
J116 2
7 -1
47 1
J117 2
8 -1
49 1
J118 2
0 -2
10 1
J119 3
0 -1
5 -1
11 1
J120 3
0 -1
6 -1
12 1
J121 3
0 -1
7 -1
13 1
J122 3
0 -1
8 -1
14 1
J123 3
0 -1
9 -1
15 1
J124 2
1 -2
16 1
J125 3
1 -1
2 -1
17 1
J126 3
1 -1
3 -1
18 1
J127 3
1 -1
5 -1
19 1
J128 3
1 -1
6 -1
20 1
J129 3
1 -1
7 -1
21 1
J130 3
1 -1
8 -1
22 1
J131 3
1 -1
9 -1
23 1
J132 2
2 -2
24 1
J133 3
2 -1
5 -1
25 1
J134 3
2 -1
6 -1
26 1
J135 3
2 -1
7 -1
27 1
J136 3
2 -1
8 -1
28 1
J137 3
2 -1
9 -1
29 1
J138 2
3 -2
30 1
J139 3
3 -1
4 -1
31 1
J140 3
3 -1
5 -1
32 1
J141 3
3 -1
6 -1
33 1
J142 3
3 -1
7 -1
34 1
J143 3
3 -1
8 -1
35 1
J144 3
3 -1
9 -1
36 1
J145 2
4 -2
37 1
J146 3
4 -1
5 -1
38 1
J147 3
4 -1
6 -1
39 1
J148 3
4 -1
7 -1
40 1
J149 3
4 -1
8 -1
41 1
J150 3
4 -1
9 -1
42 1
J151 2
5 -2
43 1
J152 3
5 -1
6 -1
44 1
J153 3
5 -1
9 -1
45 1
J154 2
6 -2
46 1
J155 3
6 -1
7 -1
47 1
J156 2
7 -2
48 1
J157 3
7 -1
8 -1
49 1
J158 2
8 -2
50 1
J159 2
9 -2
51 1
J160 2
0 -1
10 1
J161 2
1 -1
16 1
J162 2
2 -1
24 1
J163 2
3 -1
30 1
J164 2
4 -1
37 1
J165 2
5 -1
43 1
J166 2
6 -1
46 1
J167 2
7 -1
48 1
J168 2
8 -1
50 1
J169 2
9 -1
51 1
G0 45
0 0.09
1 -0.99
2 0.75
3 0.84
4 0.09
5 -0.36
6 0.25
7 0.27
8 -0.49
9 0.85
10 -1.008186
11 1.00341
14 0.226822
15 -0.262465
16 -1.114096
17 0.498654
18 0.277482
19 0.317107
20 0.201486
21 -0.299271
23 0.113571
24 -1.546489
26 -0.802098
27 0.689518
28 0.024634
30 -2.048916
31 0.321257
32 0.045143
33 -0.174306
34 0.464986
36 -0.032286
37 -1.132179
38 -0.037647
39 -0.032643
41 0.081569
42 0.350787
43 -1.933593
44 -0.459762
45 0.556582
46 -0.427176
47 0.553785
48 -0.567689
49 0.046106
50 -2.040147
51 -1.5099
